experiment/data/hgs-res/Vrp-Set-X-n331/Vrp-Set-X-n331-hgs/0.hgs1.vrp
NAME : 0
COMMENT : CVRP Instance
TYPE : CVRP
DIMENSION : 331
EDGE_WEIGHT_TYPE : EUC_2D
CAPACITY : 23
NODE_COORD_SECTION
1	0.0	0.0
2	2.0	857.0
3	407.0	102.0
4	915.0	965.0
5	797.0	45.0
6	997.0	241.0
7	650.0	683.0
8	748.0	248.0
9	99.0	174.0
10	2.0	545.0
11	277.0	689.0
12	568.0	771.0
13	76.0	105.0
14	117.0	973.0
15	171.0	971.0
16	327.0	183.0
17	277.0	697.0
18	269.0	246.0
19	670.0	18.0
20	51.0	901.0
21	951.0	696.0
22	710.0	102.0
23	61.0	465.0
24	348.0	606.0
25	551.0	243.0
26	524.0	793.0
27	89.0	582.0
28	900.0	748.0
29	235.0	368.0
30	122.0	587.0
31	449.0	781.0
32	970.0	38.0
33	362.0	490.0
34	742.0	267.0
35	289.0	115.0
36	898.0	957.0
37	996.0	922.0
38	951.0	633.0
39	713.0	779.0
40	603.0	247.0
41	402.0	363.0
42	143.0	0.0
43	274.0	608.0
44	81.0	422.0
45	550.0	408.0
46	43.0	699.0
47	482.0	575.0
48	909.0	254.0
49	613.0	37.0
50	202.0	575.0
51	297.0	297.0
52	736.0	288.0
53	464.0	127.0
54	499.0	491.0
55	635.0	531.0
56	796.0	328.0
57	184.0	941.0
58	641.0	824.0
59	863.0	673.0
60	396.0	950.0
61	555.0	631.0
62	664.0	966.0
63	301.0	260.0
64	425.0	990.0
65	559.0	746.0
66	431.0	827.0
67	724.0	472.0
68	847.0	51.0
69	888.0	721.0
70	136.0	331.0
71	859.0	627.0
72	206.0	5.0
73	429.0	381.0
74	798.0	918.0
75	886.0	684.0
76	123.0	488.0
77	779.0	445.0
78	764.0	43.0
79	938.0	743.0
80	800.0	398.0
81	734.0	20.0
82	211.0	678.0
83	601.0	545.0
84	512.0	403.0
85	796.0	106.0
86	644.0	810.0
87	416.0	973.0
88	115.0	435.0
89	667.0	91.0
90	395.0	941.0
91	374.0	546.0
92	546.0	191.0
93	754.0	255.0
94	124.0	588.0
95	423.0	929.0
96	314.0	637.0
97	668.0	268.0
98	321.0	786.0
99	960.0	423.0
100	11.0	499.0
101	721.0	692.0
102	803.0	584.0
103	337.0	475.0
104	806.0	773.0
105	429.0	478.0
106	214.0	547.0
107	361.0	166.0
108	944.0	218.0
109	12.0	468.0
110	527.0	255.0
111	789.0	724.0
112	250.0	862.0
113	892.0	896.0
114	545.0	806.0
115	832.0	12.0
116	628.0	495.0
117	194.0	884.0
118	395.0	309.0
119	655.0	39.0
120	558.0	175.0
121	247.0	947.0
122	36.0	394.0
123	877.0	451.0
124	599.0	724.0
125	83.0	489.0
126	754.0	703.0
127	65.0	35.0
128	889.0	230.0
129	938.0	307.0
130	662.0	394.0
131	248.0	220.0
132	642.0	549.0
133	747.0	86.0
134	201.0	643.0
135	400.0	574.0
136	653.0	798.0
137	653.0	904.0
138	643.0	138.0
139	951.0	307.0
140	793.0	865.0
141	500.0	726.0
142	585.0	586.0
143	285.0	769.0
144	511.0	898.0
145	336.0	912.0
146	454.0	207.0
147	239.0	951.0
148	335.0	815.0
149	911.0	708.0
150	2.0	239.0
151	602.0	984.0
152	372.0	799.0
153	177.0	756.0
154	816.0	435.0
155	617.0	639.0
156	806.0	796.0
157	793.0	584.0
158	803.0	561.0
159	479.0	831.0
160	397.0	20.0
161	618.0	113.0
162	702.0	902.0
163	838.0	111.0
164	989.0	451.0
165	215.0	154.0
166	581.0	757.0
167	294.0	174.0
168	997.0	332.0
169	350.0	909.0
170	335.0	941.0
171	906.0	354.0
172	920.0	675.0
173	493.0	469.0
174	187.0	284.0
175	678.0	127.0
176	831.0	755.0
177	316.0	319.0
178	188.0	134.0
179	73.0	608.0
180	884.0	613.0
181	193.0	831.0
182	717.0	851.0
183	508.0	52.0
184	809.0	556.0
185	705.0	769.0
186	983.0	312.0
187	847.0	359.0
188	415.0	658.0
189	132.0	789.0
190	520.0	413.0
191	913.0	564.0
192	90.0	256.0
193	960.0	936.0
194	693.0	559.0
195	980.0	347.0
196	300.0	456.0
197	376.0	144.0
198	192.0	177.0
199	272.0	525.0
200	88.0	626.0
201	772.0	743.0
202	540.0	206.0
203	474.0	559.0
204	575.0	901.0
205	241.0	949.0
206	583.0	602.0
207	215.0	48.0
208	460.0	683.0
209	81.0	368.0
210	998.0	835.0
211	585.0	234.0
212	522.0	137.0
213	294.0	501.0
214	788.0	392.0
215	621.0	498.0
216	116.0	698.0
217	81.0	236.0
218	788.0	277.0
219	817.0	861.0
220	678.0	560.0
221	351.0	354.0
222	156.0	507.0
223	617.0	486.0
224	218.0	189.0
225	213.0	23.0
226	884.0	616.0
227	923.0	177.0
228	829.0	814.0
229	479.0	307.0
230	285.0	153.0
231	584.0	878.0
232	176.0	928.0
233	166.0	656.0
234	507.0	183.0
235	907.0	171.0
236	7.0	792.0
237	995.0	412.0
238	22.0	787.0
239	149.0	784.0
240	649.0	933.0
241	885.0	309.0
242	131.0	560.0
243	22.0	81.0
244	502.0	640.0
245	462.0	970.0
246	465.0	114.0
247	192.0	569.0
248	547.0	473.0
249	557.0	408.0
250	480.0	579.0
251	775.0	395.0
252	845.0	753.0
253	701.0	529.0
254	962.0	95.0
255	842.0	847.0
256	31.0	68.0
257	627.0	629.0
258	524.0	322.0
259	918.0	853.0
260	823.0	774.0
261	775.0	894.0
262	109.0	935.0
263	478.0	480.0
264	511.0	488.0
265	785.0	899.0
266	487.0	121.0
267	453.0	440.0
268	470.0	598.0
269	1.0	111.0
270	756.0	89.0
271	728.0	583.0
272	647.0	753.0
273	973.0	391.0
274	842.0	559.0
275	637.0	397.0
276	72.0	370.0
277	948.0	485.0
278	999.0	268.0
279	471.0	517.0
280	350.0	131.0
281	381.0	534.0
282	310.0	467.0
283	973.0	212.0
284	164.0	485.0
285	429.0	565.0
286	186.0	426.0
287	838.0	897.0
288	779.0	143.0
289	452.0	1.0
290	866.0	928.0
291	214.0	623.0
292	532.0	586.0
293	513.0	152.0
294	915.0	772.0
295	204.0	585.0
296	343.0	558.0
297	877.0	720.0
298	730.0	272.0
299	364.0	617.0
300	210.0	569.0
301	514.0	296.0
302	33.0	761.0
303	202.0	695.0
304	706.0	395.0
305	597.0	866.0
306	376.0	83.0
307	679.0	434.0
308	483.0	578.0
309	0.0	299.0
310	639.0	101.0
311	709.0	590.0
312	774.0	925.0
313	804.0	864.0
314	528.0	192.0
315	660.0	561.0
316	888.0	7.0
317	788.0	712.0
318	79.0	750.0
319	854.0	884.0
320	710.0	665.0
321	939.0	390.0
322	156.0	683.0
323	62.0	737.0
324	207.0	501.0
325	944.0	334.0
326	952.0	915.0
327	14.0	440.0
328	923.0	386.0
329	693.0	370.0
330	485.0	885.0
331	890.0	951.0
DEMAND_SECTION
1	0
2	1
3	1
4	1
5	1
6	1
7	1
8	1
9	1
10	1
11	1
12	1
13	1
14	1
15	1
16	1
17	1
18	1
19	1
20	1
21	1
22	1
23	1
24	1
25	1
26	1
27	1
28	1
29	1
30	1
31	1
32	1
33	1
34	1
35	1
36	1
37	1
38	1
39	1
40	1
41	1
42	1
43	1
44	1
45	1
46	1
47	1
48	1
49	1
50	1
51	1
52	1
53	1
54	1
55	1
56	1
57	1
58	1
59	1
60	1
61	1
62	1
63	1
64	1
65	1
66	1
67	1
68	1
69	1
70	1
71	1
72	1
73	1
74	1
75	1
76	1
77	1
78	1
79	1
80	1
81	1
82	1
83	1
84	1
85	1
86	1
87	1
88	1
89	1
90	1
91	1
92	1
93	1
94	1
95	1
96	1
97	1
98	1
99	1
100	1
101	1
102	1
103	1
104	1
105	1
106	1
107	1
108	1
109	1
110	1
111	1
112	1
113	1
114	1
115	1
116	1
117	1
118	1
119	1
120	1
121	1
122	1
123	1
124	1
125	1
126	1
127	1
128	1
129	1
130	1
131	1
132	1
133	1
134	1
135	1
136	1
137	1
138	1
139	1
140	1
141	1
142	1
143	1
144	1
145	1
146	1
147	1
148	1
149	1
150	1
151	1
152	1
153	1
154	1
155	1
156	1
157	1
158	1
159	1
160	1
161	1
162	1
163	1
164	1
165	1
166	1
167	1
168	1
169	1
170	1
171	1
172	1
173	1
174	1
175	1
176	1
177	1
178	1
179	1
180	1
181	1
182	1
183	1
184	1
185	1
186	1
187	1
188	1
189	1
190	1
191	1
192	1
193	1
194	1
195	1
196	1
197	1
198	1
199	1
200	1
201	1
202	1
203	1
204	1
205	1
206	1
207	1
208	1
209	1
210	1
211	1
212	1
213	1
214	1
215	1
216	1
217	1
218	1
219	1
220	1
221	1
222	1
223	1
224	1
225	1
226	1
227	1
228	1
229	1
230	1
231	1
232	1
233	1
234	1
235	1
236	1
237	1
238	1
239	1
240	1
241	1
242	1
243	1
244	1
245	1
246	1
247	1
248	1
249	1
250	1
251	1
252	1
253	1
254	1
255	1
256	1
257	1
258	1
259	1
260	1
261	1
262	1
263	1
264	1
265	1
266	1
267	1
268	1
269	1
270	1
271	1
272	1
273	1
274	1
275	1
276	1
277	1
278	1
279	1
280	1
281	1
282	1
283	1
284	1
285	1
286	1
287	1
288	1
289	1
290	1
291	1
292	1
293	1
294	1
295	1
296	1
297	1
298	1
299	1
300	1
301	1
302	1
303	1
304	1
305	1
306	1
307	1
308	1
309	1
310	1
311	1
312	1
313	1
314	1
315	1
316	1
317	1
318	1
319	1
320	1
321	1
322	1
323	1
324	1
325	1
326	1
327	1
328	1
329	1
330	1
331	1
DEPOT_SECTION
1
-1
EOF
