experiment/data/hgs-res/Vrp-Set-X-n331/Vrp-Set-X-n331-hgs/0.hgs1.tour
Route #1: 159 182 309 88 21 132 269 84 162 234 226 253 31 315 114 67 4 77 80 18 118 48 288
Route #2: 297 33 7 92 217 240 128 138 324 194 167 185 277 5 282 107 47 127 287 174 137 160 305
Route #3: 255 242 12 206 224 71 41 126
Route #4: 177 164 229 166 15 106 145 109 24 201 91 119 313 233 292 211 265 52 245 2 196 279 34
Route #5: 300 328 303 250 213 79 76 153 122 276 163 98 236 272 320 327 170 186 55 51 96 39 210
Route #6: 228 257 274 129 306 66 252 193 219 314 131 54 115 214 222 248 44 189 83 117 62 130 223
Route #7: 183 273 190 37 20 78 209 36 325 192 3 35 330 289 112 258 293 27 148 171 225 179 157
Route #8: 247 82 310 270 156 101 70 58 74 68 296 251 175 259 103 200 110 316 125 100 319 256 141
Route #9: 291 60 123 271 181 161 311 73 264 260 139 312 218 286 318 254 227 155 38 184 6 154 205
Route #10: 102 32 280 90 134 284 249 307 46 202 278 53 263 172 262 266 72 40 220 176 50 17 197
Route #11: 104 267 243 64 11 165 135 85 57 136 239 61 150 203 230 304 113 25 140 207 187 298 198
Route #12: 69 285 323 105 299 246 49 294 290 133 81 302 16 10 95 23 295 212 281 195 28 173 8
Route #13: 42 142 97 147 151 65 30 158 329 143 244 63 86 94 89 59 169 168 144 111 152 321 232
Route #14: 268 149 308 121 326 108 99 9 178 199 26 29 93 241 221 283 75 87 43 275 208 191 216
Route #15: 124 215 188 238 180 116 120 204 146 56 231 14 13 261 19 1 235 237 301 317 322 45 22
Cost 31123.8
